presolving:
(round 1, fast)       0 del vars, 0 del conss, 0 add conss, 25000 chg bounds, 0 chg sides, 0 chg coeffs, 0 upgd conss, 0 impls, 232 clqs
(round 2, fast)       0 del vars, 0 del conss, 0 add conss, 49947 chg bounds, 0 chg sides, 0 chg coeffs, 0 upgd conss, 0 impls, 232 clqs
   (0.2s) running MILP presolver
   (0.2s) MILP presolver (2 rounds): 0 aggregations, 0 fixings, 15 bound changes
(round 3, exhaustive) 0 del vars, 18 del conss, 0 add conss, 49962 chg bounds, 0 chg sides, 0 chg coeffs, 0 upgd conss, 0 impls, 232 clqs
(round 4, exhaustive) 0 del vars, 18 del conss, 0 add conss, 49962 chg bounds, 0 chg sides, 0 chg coeffs, 232 upgd conss, 0 impls, 232 clqs
   (0.7s) probing cycle finished: starting next cycle
   (0.7s) probing: 1/250 (0.4%) - 0 fixings, 0 aggregations, 50463 implications, 0 bound changes
   (0.7s) probing aborted: 50/50 successive totally useless probings
   (0.7s) symmetry computation started: requiring (bin +, int -, cont +), (fixed: bin -, int +, cont -)
   (0.7s) no symmetry present
presolving (5 rounds: 5 fast, 3 medium, 3 exhaustive):
 0 deleted vars, 18 deleted constraints, 0 added constraints, 49962 tightened bounds, 0 added holes, 0 changed sides, 0 changed coefficients
 50000 implications, 695 cliques
presolved problem has 25250 variables (250 bin, 0 int, 0 impl, 25000 cont) and 982 constraints
    232 constraints of type <setppc>
    750 constraints of type <linear>
Presolving Time: 0.67

 time | node  | left  |LP iter|LP it/n|mem/heur|mdpt |vars |cons |rows |cuts |sepa|confs|strbr|  dualbound   | primalbound  |  gap   | compl. 
p 1.0s|     1 |     0 |  1122 |     - |   locks|   0 |  25k| 983 | 982 |   0 |  0 |   0 |   0 | 0.000000e+00 | 2.380932e+07 |    Inf | unknown
i 1.0s|     1 |     0 |  1122 |     - |  oneopt|   0 |  25k| 983 | 982 |   0 |  0 |   0 |   0 | 0.000000e+00 | 2.043444e+07 |    Inf | unknown
  2.0s|     1 |     0 |  8205 |     - |   157M |   0 |  25k| 983 | 982 |   0 |  0 |   0 |   0 | 3.827016e+06 | 2.043444e+07 | 433.95%| unknown
  2.1s|     1 |     0 |  8216 |     - |   162M |   0 |  25k| 983 | 987 |   5 |  1 |   0 |   0 | 3.827038e+06 | 2.043444e+07 | 433.95%| unknown
  2.1s|     1 |     0 |  8234 |     - |   162M |   0 |  25k| 983 | 992 |  10 |  2 |   0 |   0 | 3.827081e+06 | 2.043444e+07 | 433.94%| unknown
  2.2s|     1 |     0 |  8249 |     - |   162M |   0 |  25k| 983 | 997 |  15 |  3 |   0 |   0 | 3.827099e+06 | 2.043444e+07 | 433.94%| unknown
  2.2s|     1 |     0 |  8252 |     - |   162M |   0 |  25k| 983 |1002 |  20 |  4 |   0 |   0 | 3.827123e+06 | 2.043444e+07 | 433.94%| unknown
  2.3s|     1 |     0 |  8257 |     - |   162M |   0 |  25k| 983 |1006 |  24 |  5 |   0 |   0 | 3.827138e+06 | 2.043444e+07 | 433.94%| unknown
  2.4s|     1 |     0 |  8265 |     - |   162M |   0 |  25k| 983 |1010 |  28 |  6 |   0 |   0 | 3.827146e+06 | 2.043444e+07 | 433.93%| unknown
r 2.4s|     1 |     0 |  8265 |     - |shifting|   0 |  25k| 983 |1010 |  28 |  6 |   0 |   0 | 3.827146e+06 | 5.175453e+06 |  35.23%| unknown
  2.4s|     1 |     0 |  8267 |     - |   164M |   0 |  25k| 983 |1014 |  32 |  7 |   0 |   0 | 3.827157e+06 | 5.175453e+06 |  35.23%| unknown
  2.5s|     1 |     0 |  8281 |     - |   164M |   0 |  25k| 983 |1018 |  36 |  8 |   0 |   0 | 3.827182e+06 | 5.175453e+06 |  35.23%| unknown
  2.5s|     1 |     0 |  8285 |     - |   164M |   0 |  25k| 983 |1022 |  40 |  9 |   0 |   0 | 3.827200e+06 | 5.175453e+06 |  35.23%| unknown
  2.6s|     1 |     0 |  8288 |     - |   164M |   0 |  25k| 983 |1026 |  44 | 10 |   0 |   0 | 3.827204e+06 | 5.175453e+06 |  35.23%| unknown
  2.6s|     1 |     0 |  8303 |     - |   165M |   0 |  25k| 983 |1030 |  48 | 11 |   0 |   0 | 3.827229e+06 | 5.175453e+06 |  35.23%| unknown
 time | node  | left  |LP iter|LP it/n|mem/heur|mdpt |vars |cons |rows |cuts |sepa|confs|strbr|  dualbound   | primalbound  |  gap   | compl. 
d 3.2s|     1 |     0 | 10758 |     - |farkasdi|   0 |  25k| 983 |1030 |   0 | 11 |   0 |   0 | 3.827229e+06 | 3.967942e+06 |   3.68%| unknown
  3.9s|     1 |     0 | 11100 |     - |   169M |   0 |  25k| 983 |1030 |  48 | 11 |   0 |   0 | 3.827229e+06 | 3.967942e+06 |   3.68%| unknown
  3.9s|     1 |     0 | 11100 |     - |   172M |   0 |  25k| 984 | 996 |  48 | 11 |   1 |   0 | 3.827229e+06 | 3.967942e+06 |   3.68%| unknown
  4.0s|     1 |     0 | 11102 |     - |   172M |   0 |  25k| 950 |1000 |  52 | 12 |   1 |   0 | 3.827236e+06 | 3.967942e+06 |   3.68%| unknown
  4.0s|     1 |     0 | 11108 |     - |   172M |   0 |  25k| 950 | 996 |  56 | 13 |   1 |   0 | 3.827251e+06 | 3.967942e+06 |   3.68%| unknown
  4.1s|     1 |     0 | 11108 |     - |   172M |   0 |  25k| 808 | 996 |  56 | 13 |   1 |   0 | 3.827251e+06 | 3.967942e+06 |   3.68%| unknown
  4.2s|     1 |     0 | 11114 |     - |   172M |   0 |  25k| 808 |1000 |  60 | 14 |   1 |   0 | 3.827255e+06 | 3.967942e+06 |   3.68%| unknown
  4.2s|     1 |     0 | 11115 |     - |   172M |   0 |  25k| 808 |1004 |  64 | 15 |   1 |   0 | 3.827256e+06 | 3.967942e+06 |   3.68%| unknown
(run 1, node 1) restarting after 88 global fixings of integer variables

(restart) converted 56 cuts from the global cut pool into linear constraints

presolving:
(round 1, fast)       8888 del vars, 0 del conss, 0 add conss, 0 chg bounds, 0 chg sides, 41 chg coeffs, 0 upgd conss, 50000 impls, 464 clqs
   (4.3s) running MILP presolver
   (4.3s) MILP presolver found nothing
(round 2, exhaustive) 8888 del vars, 0 del conss, 0 add conss, 0 chg bounds, 0 chg sides, 41 chg coeffs, 53 upgd conss, 50000 impls, 464 clqs
presolving (3 rounds: 3 fast, 2 medium, 2 exhaustive):
 8888 deleted vars, 0 deleted constraints, 0 added constraints, 0 tightened bounds, 0 added holes, 0 changed sides, 92 changed coefficients
 50001 implications, 464 cliques
presolved problem has 16362 variables (162 bin, 0 int, 0 impl, 16200 cont) and 864 constraints
     53 constraints of type <varbound>
    145 constraints of type <setppc>
    665 constraints of type <linear>
      1 constraints of type <logicor>
Presolving Time: 0.79
transformed 2/5 original solutions to the transformed problem space

 time | node  | left  |LP iter|LP it/n|mem/heur|mdpt |vars |cons |rows |cuts |sepa|confs|strbr|  dualbound   | primalbound  |  gap   | compl. 
  5.4s|     1 |     0 | 18264 |     - |   171M |   0 |  16k| 864 | 862 |   0 |  0 |   1 |   0 | 3.827256e+06 | 3.967942e+06 |   3.68%| unknown
  5.4s|     1 |     0 | 18264 |     - |   171M |   0 |  16k| 864 | 861 |   0 |  0 |   1 |   0 | 3.827256e+06 | 3.967942e+06 |   3.68%| unknown
  5.5s|     1 |     0 | 18267 |     - |   172M |   0 |  16k| 863 | 863 |   2 |  1 |   1 |   0 | 3.827260e+06 | 3.967942e+06 |   3.68%| unknown
  5.6s|     1 |     0 | 18269 |     - |   172M |   0 |  16k| 863 | 865 |   4 |  2 |   1 |   0 | 3.827282e+06 | 3.967942e+06 |   3.68%| unknown
  5.7s|     1 |     0 | 18274 |     - |   173M |   0 |  16k| 863 | 869 |   8 |  3 |   1 |   0 | 3.827292e+06 | 3.967942e+06 |   3.67%| unknown
  5.8s|     1 |     0 | 18276 |     - |   173M |   0 |  16k| 863 | 873 |  12 |  4 |   1 |   0 | 3.827296e+06 | 3.967942e+06 |   3.67%| unknown
  5.9s|     1 |     0 | 18278 |     - |   173M |   0 |  16k| 863 | 874 |  13 |  5 |   1 |   0 | 3.827301e+06 | 3.967942e+06 |   3.67%| unknown
  6.0s|     1 |     0 | 18280 |     - |   173M |   0 |  16k| 863 | 875 |  14 |  6 |   1 |   0 | 3.827322e+06 | 3.967942e+06 |   3.67%| unknown
  6.2s|     1 |     0 | 18283 |     - |   173M |   0 |  16k| 863 | 879 |  18 |  7 |   1 |   0 | 3.827325e+06 | 3.967942e+06 |   3.67%| unknown
  6.3s|     1 |     0 | 18294 |     - |   173M |   0 |  16k| 863 | 881 |  20 |  8 |   1 |   0 | 3.827334e+06 | 3.967942e+06 |   3.67%| unknown
  6.4s|     1 |     0 | 18295 |     - |   173M |   0 |  16k| 863 | 882 |  21 |  9 |   1 |   0 | 3.827334e+06 | 3.967942e+06 |   3.67%| unknown
  6.6s|     1 |     0 | 18296 |     - |   173M |   0 |  16k| 863 | 886 |  25 | 10 |   1 |   0 | 3.827334e+06 | 3.967942e+06 |   3.67%| unknown
  6.7s|     1 |     0 | 18296 |     - |   174M |   0 |  16k| 856 | 886 |  25 | 11 |   1 |   0 | 3.827334e+06 | 3.967942e+06 |   3.67%| unknown
  6.9s|     1 |     0 | 18302 |     - |   174M |   0 |  16k| 856 | 889 |  28 | 12 |   1 |   0 | 3.827335e+06 | 3.967942e+06 |   3.67%| unknown
  7.0s|     1 |     0 | 18303 |     - |   174M |   0 |  16k| 856 | 890 |  29 | 13 |   1 |   0 | 3.827335e+06 | 3.967942e+06 |   3.67%| unknown
 time | node  | left  |LP iter|LP it/n|mem/heur|mdpt |vars |cons |rows |cuts |sepa|confs|strbr|  dualbound   | primalbound  |  gap   | compl. 
  8.0s|     1 |     2 | 20251 |     - |   175M |   0 |  16k| 856 | 890 |  29 | 15 |   1 |   5 | 3.831421e+06 | 3.967942e+06 |   3.56%| unknown

SCIP Status        : problem is solved [optimal solution found]
Solving Time (sec) : 21.05
Solving Nodes      : 61 (total of 62 nodes in 2 runs)
Primal Bound       : +3.96794186448857e+06 (5 solutions)
Dual Bound         : +3.96794186448857e+06
Gap                : 0.00 %
Solve Status: optimal
Solve Time: 21.06 seconds
